p cnf 100 140
75 45 -62 0
-72 -85 38 0
82 -97 8 0
1 -45 33 0
46 -63 -22 0
3 91 -90 0
3 73 -84 0
-86 57 -84 0
-17 -33 -73 0
38 -56 68 0
68 44 25 0
24 60 66 0
6 -89 3 0
-38 2 28 0
-68 98 1 0
87 -59 -31 0
-94 97 -28 0
11 65 -50 0
-40 -23 -32 0
-86 -63 89 0
-53 -23 -48 0
-42 22 62 0
5 95 -17 0
-53 -45 -47 0
-22 -46 -24 0
-15 18 52 0
-10 6 -75 0
32 -90 31 0
-33 59 -4 0
-31 -75 40 0
36 -39 -16 0
99 77 -41 0
-71 -86 90 0
-11 -88 91 0
32 -74 13 0
80 -20 40 0
-15 -80 -49 0
-28 83 18 0
-32 93 -7 0
48 14 -85 0
100 -57 73 0
-48 88 -37 0
-63 -95 -66 0
41 58 11 0
8 -62 -23 0
-69 -60 -70 0
44 -89 -29 0
97 43 -39 0
37 -92 -90 0
91 3 86 0
-42 24 8 0
-99 -50 31 0
-91 -84 -5 0
-49 15 11 0
42 -68 70 0
-75 30 -22 0
50 19 68 0
67 -91 -76 0
53 -50 7 0
-86 97 21 0
-85 39 86 0
55 67 8 0
20 -56 15 0
-34 97 -99 0
68 -30 70 0
-72 -22 79 0
-19 -81 -66 0
66 -94 -60 0
-34 51 -93 0
-64 43 8 0
3 11 41 0
51 95 66 0
-24 12 2 0
50 59 -47 0
7 78 -17 0
40 -63 -70 0
-37 2 96 0
76 84 -7 0
59 89 81 0
75 -31 81 0
-64 33 -19 0
-17 36 -69 0
-90 -65 36 0
13 -14 69 0
26 43 -39 0
-87 52 22 0
-68 -15 40 0
24 72 84 0
71 -32 -28 0
-42 53 -8 0
-21 -67 27 0
38 -54 56 0
-39 100 53 0
-79 71 86 0
6 3 88 0
62 -50 -41 0
-71 82 53 0
-35 1 90 0
-62 -47 -94 0
-85 -98 -33 0
x -3 -5 6 8 -10 -11 12 -14 19 20 21 23 28 34 -36 37 -41 43 -46 -48 -49 -52 54 -55 -60 -61 -62 66 67 69 -70 -76 77 79 -81 -82 -83 85 90 91 94 96 -97 0
x 1 -2 3 -5 6 11 13 -14 15 -17 -21 -23 -27 28 29 -32 34 36 37 -40 42 43 45 -47 -49 51 -52 -53 -54 -55 56 -58 -59 -61 64 -66 74 75 76 -77 82 -83 -85 88 90 91 92 95 -98 -99 0
x -2 3 6 7 -8 -9 10 13 -16 -18 -23 -27 31 32 -33 34 -38 -41 -44 46 51 -52 53 55 56 -58 59 -60 -61 64 65 66 69 70 74 75 76 79 -80 -87 88 -89 90 95 -97 -98 0
x 2 4 7 9 -13 17 -18 -19 23 24 -25 -28 -29 -35 37 -39 42 43 -47 48 -49 -50 -51 -52 55 -56 -57 -61 -62 -65 -70 -71 73 74 -76 -82 83 -88 92 93 95 96 97 98 -99 0
x 1 2 3 4 5 -6 -7 -11 12 13 -17 -19 -23 25 26 29 30 -32 33 -34 -36 38 39 41 42 43 -44 -45 48 49 -50 -52 54 55 56 -57 -58 -60 61 63 -64 -65 -66 -67 -70 -71 72 -77 81 83 -84 -85 86 87 -96 98 99 -100 0
x -1 -3 -5 6 10 -12 -13 14 -16 17 19 20 -27 31 33 34 -35 -38 39 -41 42 -43 44 -46 49 -50 52 -53 58 59 63 -64 66 68 69 71 -73 76 77 -79 80 84 86 -88 89 -91 94 95 97 100 0
x 1 4 -6 -7 -8 9 10 11 -12 -14 16 20 22 -23 -24 25 26 -27 -28 -29 -31 -32 34 42 -44 45 -46 -48 49 -50 -52 56 -57 58 59 61 62 64 -65 -66 -69 -70 71 -74 -75 -78 79 81 82 86 89 90 -93 95 -96 97 -99 -100 0
x 2 3 11 12 -17 -19 21 22 -23 25 -26 -30 -31 -33 -35 -36 -38 40 44 -46 -52 -57 58 -62 65 -66 70 72 73 -77 -80 -81 -82 84 -88 -90 91 93 -94 96 97 -98 100 0
x -1 -8 9 -10 -13 -14 -15 16 -20 -21 22 23 24 -25 -29 36 37 -39 -44 47 -53 -56 59 -60 63 -64 65 -70 76 -77 79 80 -83 85 -87 88 89 90 -95 -96 -97 0
x -1 -2 6 -8 11 -14 -17 -19 -20 -22 23 26 -27 29 -32 36 38 -39 -44 -45 -48 -50 51 -53 55 -56 57 58 -63 -64 -66 70 71 72 -73 -76 77 -79 -82 -83 85 86 87 96 97 0
x -2 3 5 -6 -7 -10 -13 -15 -17 18 -20 -21 27 -28 -29 -31 32 35 -36 -37 -39 41 42 -43 -44 -46 48 49 51 52 -53 -56 59 -60 61 -65 -69 -70 -71 72 73 74 -80 82 -85 -87 88 -91 -92 -96 98 -99 100 0
x 4 -5 -6 8 -9 10 11 12 -13 14 15 21 -24 -25 -26 -28 29 31 33 39 43 -45 46 -50 -51 -52 -53 -56 -59 60 61 62 -63 64 68 -70 71 -78 80 -83 -84 -86 -89 -90 -91 92 -93 -95 98 0
x -2 3 -5 7 9 10 11 -15 16 18 -19 -20 -21 23 28 -29 -30 33 34 35 -36 43 44 47 -49 51 53 55 56 -58 -59 61 -62 -65 66 -70 74 76 79 -80 82 -85 -86 89 93 94 96 98 100 0
x -1 6 -7 -8 -14 -15 -16 19 20 -21 22 23 -24 25 -26 -28 -30 32 34 37 38 -40 43 44 -47 -48 -49 50 52 53 61 -63 -64 -65 66 68 -69 -72 -74 -75 78 -79 82 84 -85 86 87 89 90 92 -93 -95 96 -99 100 0
x -1 -4 -5 9 10 -11 12 23 24 25 27 -28 29 30 37 -40 41 42 43 -45 47 -48 -49 53 54 -58 59 60 -64 68 71 -74 75 77 78 87 -88 -89 -91 -92 -93 -94 -96 -98 -99 0
x -1 3 -4 6 8 13 14 16 -19 20 21 23 -26 -28 -30 31 34 -35 37 -41 44 45 46 -47 -49 51 -53 -54 55 56 -57 60 -61 -65 -66 67 68 -70 -73 -74 -76 77 78 -80 82 85 92 93 94 -95 -96 -97 -99 100 0
x -1 2 -3 -4 -5 -6 7 8 9 10 -11 -16 20 -22 -25 26 27 28 29 -31 -33 -34 38 40 -41 43 46 55 56 57 -59 60 61 62 63 -69 -71 72 -73 -76 77 -78 79 -82 -84 87 88 -89 -90 -93 -94 95 -96 -100 0
x -1 -4 5 -6 9 -11 13 -15 16 17 -19 -22 24 -25 26 33 -34 36 37 39 -40 -42 43 -45 -47 50 51 -52 53 -55 56 58 -59 65 -67 71 72 74 76 -77 78 80 -81 -82 -83 -84 -88 -90 -95 -99 100 0
x 1 -2 -4 -6 -8 -9 -11 -14 18 19 20 -23 -25 27 -28 36 -39 42 -44 45 -47 48 -49 50 51 -52 -55 57 -58 59 -61 -64 -70 -72 73 74 76 -77 -78 -80 81 -82 83 84 -85 -86 87 -90 91 95 -96 -99 100 0
x 3 4 6 9 11 12 -14 -15 16 -17 18 19 -21 -24 -26 -27 28 29 -31 -32 -33 36 37 -38 39 40 42 43 -46 48 -52 -56 -58 66 68 -69 -70 71 -73 -74 79 -80 -81 86 -89 91 95 97 -99 0
x 2 -3 -4 6 -7 9 -13 -14 21 23 -24 -26 28 29 -31 -34 -36 -37 38 40 41 -49 -50 -52 53 -54 55 64 -70 72 73 -74 -75 77 78 -79 80 -86 -89 91 -92 95 -96 97 -99 -100 0
x 2 3 5 7 -8 10 12 -13 -14 -15 -16 17 -18 19 20 24 27 29 31 -32 33 34 36 37 -38 -39 41 42 -43 -44 -46 47 51 52 53 -54 -55 57 60 -61 63 -65 -66 67 -68 -71 -73 75 -77 -78 -79 -81 -84 -85 -86 -89 90 91 -92 -93 -94 -97 -98 100 0
x -2 3 6 -8 -9 10 -12 14 16 -17 -18 -19 22 -25 -27 28 29 34 39 -41 43 44 -45 -46 -48 -51 -52 -54 -55 56 -57 -59 60 -66 70 72 73 -78 79 80 83 84 -87 -89 -91 94 -96 97 -98 0
x 1 2 4 5 -6 -7 -13 16 -17 -19 -20 21 -24 25 -27 29 30 31 -32 35 -36 -37 -45 -50 51 52 53 54 56 57 61 62 65 68 -71 -72 76 -78 -84 -85 -88 89 -90 -91 -99 100 0
x 2 4 5 6 7 -14 16 -17 -18 -19 20 -22 23 25 -27 28 29 -33 -35 -37 39 40 42 44 45 -46 -49 -50 54 55 56 -57 60 -61 -62 63 65 68 69 -70 -71 74 75 -77 -80 -83 -86 -88 -89 -91 92 93 96 -100 0
x 3 5 7 8 10 -13 14 15 -17 19 23 -26 -27 28 33 35 36 -38 39 -42 44 -46 -50 51 -52 -53 60 62 -63 64 -67 68 75 -77 -78 81 82 84 85 86 87 -88 -89 90 -93 95 -98 -99 -100 0
x 1 -2 4 -5 11 -13 15 -17 18 19 20 23 -27 -28 29 30 -32 -33 34 -37 -38 42 -43 -45 -53 54 55 -56 57 -60 61 63 -64 -65 -66 -69 71 -72 -73 -76 78 -79 80 -84 -85 -93 95 -96 97 -98 -99 0
x -2 -3 4 6 -8 -12 -13 18 -20 -21 23 -25 -26 28 -30 32 -33 37 40 42 -45 -46 -48 -53 54 55 -56 59 -60 -65 -66 -68 69 70 71 72 73 -75 79 -81 -85 -86 87 88 -91 -92 -93 -94 -95 -96 0
x -2 -3 -4 -8 -13 -15 17 18 -20 22 -23 25 -28 -33 -34 -35 -37 38 -41 -43 -44 -45 50 51 -52 54 63 -64 65 -68 -69 72 74 75 -76 77 79 82 83 85 89 -90 92 -93 -94 0
x 2 -7 9 -11 13 -15 19 25 26 27 28 30 -31 -32 34 39 -40 -47 -48 -51 52 -53 54 -55 -56 59 61 65 -69 -71 -74 75 79 -81 -82 84 86 -88 -89 -92 -97 100 0
x 3 -5 7 -12 -13 16 17 -18 -19 20 21 27 -29 -31 32 33 -36 37 -39 40 42 -44 -47 -48 52 53 -54 -56 57 58 -64 -66 68 80 -83 85 86 -87 -88 -89 91 -93 94 98 -99 0
x 1 2 -6 -7 9 10 -11 12 -14 17 19 -21 23 24 -25 -31 -32 34 37 38 -40 -41 -42 -43 -44 -45 47 -52 -53 54 56 -58 -60 -61 62 66 -68 -69 72 -75 -76 -79 80 81 84 -87 -88 -91 92 95 96 97 -98 0
x -2 6 -7 -9 -14 -16 17 -19 -23 -24 25 28 29 -30 31 33 34 35 37 -39 -40 42 -45 -46 50 -51 53 -55 56 -57 61 -63 65 68 69 -70 -72 -74 -75 77 82 -83 -89 -92 -93 95 96 97 -99 0
x -1 2 4 -6 8 9 -10 -14 15 -16 19 20 21 22 -24 -25 28 -30 32 -35 -36 39 -40 -41 -43 45 -48 -53 54 55 57 -58 -59 -60 -62 -63 65 66 68 -69 -70 71 -73 -74 -77 -79 -80 81 82 83 90 91 92 -94 96 -98 -99 -100 0
x -1 2 5 7 8 9 -10 -13 -15 -16 18 19 22 24 -27 30 -32 -33 -35 36 40 42 44 45 -47 -49 51 -53 -56 -58 59 60 61 63 64 -67 -68 -69 71 76 77 -78 80 -82 83 -85 -89 90 -92 -95 96 97 0
x 2 3 5 -6 -8 12 14 20 21 22 24 25 -28 30 -32 33 35 -38 40 42 44 46 47 50 52 53 -54 -55 -59 61 62 65 66 67 70 78 79 -80 81 82 83 -85 86 -87 -88 -92 -95 97 99 100 0
x -1 -4 5 -8 10 -14 16 -17 -21 23 -28 -29 -34 -38 -40 41 46 47 -48 -50 -51 52 53 54 55 -56 61 63 -66 70 -72 74 75 76 -80 81 82 -84 -85 89 -91 92 -93 -99 0
x -1 -2 6 -11 -14 15 18 -28 31 -32 34 -36 37 39 40 41 43 -44 -45 -47 48 -51 52 54 55 -56 -60 62 63 64 65 -70 -71 73 -74 75 78 80 83 85 -86 -87 -89 91 -92 93 -96 98 99 100 0
x -4 5 6 9 -10 12 20 22 -23 24 -25 27 -28 29 31 32 33 38 -39 -40 41 -42 48 -49 -51 -56 -57 -61 -63 64 66 69 72 -74 75 77 -78 -81 82 -87 -89 91 94 -95 96 -97 100 0
x -4 -5 -6 10 -19 20 -21 -23 -26 27 -29 30 -31 -35 36 37 -40 -41 -42 45 47 48 49 -50 51 -52 54 55 57 59 -60 -63 -64 -66 77 -78 -79 -80 81 85 89 -90 93 -95 96 98 -100 0
